Maximize
  5 x_experiment_1 + 6 x_experiment_2
Subject To
  c1: 3 x_experiment_1 + 5 x_experiment_2 <= 80
  c2: 4 x_experiment_1 + 5 x_experiment_2 <= 70
  c3: 1 x_experiment_1 + 2 x_experiment_2 <= 10
End